; benchmark generated from python API
(set-info :status unknown)
(declare-datatypes ((RealState 0)) (((RMk1 (rval1 Real)) (RMk2 (rval2 Real)))))
 (assert
 (forall ((|v11:0| Real) )(forall ((|v10:1| Real) )(forall ((|v9:2| Real) )(forall ((|v8:3| Real) )(exists ((|v7:4_st| RealState) (val!3456 Real) )(exists ((|v6:5_st| RealState) (val!3457 Real) )(exists ((|v5:6_st| RealState) (val!3458 Real) )(exists ((|v4:7_st| RealState) (val!3459 Real) )(forall ((|v3:8| Real) )(forall ((|v2:9| Real) )(forall ((|v1:10| Real) )(forall ((|v0:11| Real) )(let ((?x1325 (- 19.0)))
 (let ((?x2127 (* ?x1325 |v3:8|)))
 (let ((?x2546 (+ (+ (+ (* 7.0 |v0:11|) (* 7.0 |v11:0|)) (* 19.0 (rval2 |v6:5_st|))) ?x2127)))
 (let ((?x1011 (+ (+ (+ (* 18.0 |v2:9|) (* 7.0 (rval2 |v4:7_st|))) (* (- 18.0) |v1:10|)) (* (- 17.0) |v10:1|))))
 (let ((?x56 (+ (+ (+ (* 3.0 (rval2 |v5:6_st|)) (* (- 20.0) |v9:2|)) (* 15.0 |v8:3|)) (* (- 16.0) |v8:3|))))
 (let ((?x1442 (- 10.0)))
 (let ((?x1995 (* 0.0 |v10:1|)))
 (let ((?x3018 (+ (+ (+ (* 17.0 |v0:11|) (* (- 1.0) |v9:2|)) (* (- 5.0) |v10:1|)) ?x1995)))
 (let (($x1663 (and (and (<= ?x3018 ?x1442) (<= ?x56 14.0)) (or (<= ?x1011 18.0) (<= ?x2546 14.0)))))
 (let ((?x2966 (- 2.0)))
 (let ((?x1229 (- 4.0)))
 (let ((?x1527 (* ?x1229 |v3:8|)))
 (let ((?x607 (+ (+ (+ (* (- 6.0) |v0:11|) (* (- 5.0) |v11:0|)) ?x1527) (* 7.0 (rval2 |v5:6_st|)))))
 (let ((?x2581 (* 20.0 |v11:0|)))
 (let ((?x2870 (+ (+ (* 11.0 |v1:10|) (* 16.0 (rval2 |v7:4_st|))) (* (- 11.0) (rval2 |v4:7_st|)))))
 (let ((?x2417 (* 17.0 |v0:11|)))
 (let ((?x2087 (+ (+ (+ (* 0.0 |v8:3|) (* 18.0 (rval2 |v6:5_st|))) (* (- 20.0) |v1:10|)) ?x2417)))
 (let ((?x2551 (* 2.0 |v9:2|)))
 (let ((?x865 (+ (+ (+ (* 2.0 (rval2 |v7:4_st|)) (* 19.0 |v0:11|)) (* (- 3.0) |v8:3|)) ?x2551)))
 (let (($x785 (or (or (<= ?x865 2.0) (<= ?x2087 3.0)) (and (<= (+ ?x2870 ?x2581) 17.0) (<= ?x607 ?x2966)))))
 (let ((?x1694 (- 17.0)))
 (let ((?x1860 (* ?x1694 |v8:3|)))
 (let ((?x1041 (* 2.0 |v10:1|)))
 (let ((?x105 (+ (+ (+ (* 12.0 (rval2 |v4:7_st|)) (* 14.0 (rval2 |v6:5_st|))) ?x1041) ?x1860)))
 (let ((?x1571 (rval2 |v4:7_st|)))
 (let ((?x3020 (* 7.0 ?x1571)))
 (let ((?x648 (+ (+ (+ (* (- 14.0) ?x1571) (* 12.0 |v0:11|)) (* 17.0 |v11:0|)) ?x3020)))
 (let ((?x1827 (- 6.0)))
 (let ((?x107 (* 18.0 |v3:8|)))
 (let ((?x168 (* 9.0 |v8:3|)))
 (let ((?x2010 (+ (+ (+ (* 14.0 (rval2 |v7:4_st|)) (* (- 11.0) (rval2 |v5:6_st|))) ?x168) ?x107)))
 (let ((?x2921 (* 4.0 |v0:11|)))
 (let ((?x529 (+ (+ (+ (* 3.0 (rval2 |v7:4_st|)) (* (- 13.0) |v10:1|)) (* 15.0 |v2:9|)) ?x2921)))
 (let (($x877 (or (or (<= ?x529 13.0) (<= ?x2010 ?x1827)) (or (<= ?x648 16.0) (<= ?x105 16.0)))))
 (let ((?x3024 (rval2 |v7:4_st|)))
 (let ((?x3159 (* 15.0 ?x3024)))
 (let ((?x2946 (+ (+ (+ (* 12.0 (rval2 |v6:5_st|)) (* ?x1229 ?x1571)) ?x3159) (* (- 5.0) ?x1571))))
 (let ((?x1449 (* 11.0 |v11:0|)))
 (let ((?x2731 (+ (+ (+ (* (- 3.0) |v9:2|) (* 15.0 |v3:8|)) (* 7.0 |v9:2|)) ?x1449)))
 (let ((?x2511 (- 5.0)))
 (let ((?x12 (* 16.0 |v3:8|)))
 (let ((?x263 (+ (+ (+ (* (- 14.0) |v0:11|) (* 3.0 (rval2 |v5:6_st|))) (* 7.0 |v10:1|)) ?x12)))
 (let ((?x2136 (* ?x1694 |v0:11|)))
 (let (($x1049 (<= (+ (+ (+ (* 14.0 (rval2 |v5:6_st|)) (* ?x1442 ?x3024)) ?x1860) ?x2136) 14.0)))
 (let (($x1502 (or (and $x1049 (<= ?x263 ?x2511)) (or (<= ?x2731 13.0) (<= ?x2946 16.0)))))
 (let (($x2656 (<= (+ (+ (+ ?x2417 ?x3020) (* (- 12.0) |v9:2|)) (* ?x1229 |v1:10|)) 17.0)))
 (let ((?x1915 (- 11.0)))
 (let ((?x2306 (* ?x1694 |v3:8|)))
 (let ((?x1305 (+ (+ (+ (* (- 15.0) |v11:0|) (* 16.0 ?x3024)) (* 12.0 |v2:9|)) ?x2306)))
 (let ((?x1472 (+ (+ (+ (* 5.0 (rval2 |v6:5_st|)) (* 11.0 |v2:9|)) (* 16.0 |v1:10|)) (* (- 3.0) (rval2 |v6:5_st|)))))
 (let ((?x2477 (+ (+ (+ (* (- 7.0) |v8:3|) (* (- 7.0) |v9:2|)) (* 4.0 |v11:0|)) (* 6.0 |v11:0|))))
 (let (($x1186 (or (and (<= ?x2477 2.0) (<= ?x1472 ?x1827)) (and (<= ?x1305 ?x1915) $x2656))))
 (let ((?x121 (+ (+ (+ (* (- 9.0) ?x1571) (* 13.0 (rval2 |v6:5_st|))) (* 9.0 |v9:2|)) ?x2581)))
 (let ((?x261 (- 8.0)))
 (let ((?x1550 (+ (+ (+ ?x1527 (* (- 18.0) |v10:1|)) (* ?x261 (rval2 |v6:5_st|))) (* 20.0 ?x3024))))
 (let ((?x563 (- 12.0)))
 (let ((?x758 (* 4.0 |v11:0|)))
 (let ((?x2145 (* 8.0 |v3:8|)))
 (let ((?x3021 (+ (+ (* 3.0 |v2:9|) (* 20.0 |v3:8|)) ?x2145)))
 (let ((?x2899 (* 16.0 |v0:11|)))
 (let ((?x2569 (+ (+ (+ (* (- 3.0) |v2:9|) (* ?x2966 |v0:11|)) (* (- 1.0) ?x3024)) ?x2899)))
 (let (($x1021 (and (or (<= ?x2569 ?x261) (<= (+ ?x3021 ?x758) ?x563)) (or (<= ?x1550 ?x261) (<= ?x121 16.0)))))
 (let ((?x55 (- 15.0)))
 (let ((?x740 (+ (+ (+ (* 16.0 |v11:0|) (* 6.0 |v0:11|)) (* 15.0 (rval2 |v5:6_st|))) (* ?x1325 |v10:1|))))
 (let ((?x282 (+ (+ (+ (* 13.0 |v10:1|) (* (- 14.0) |v9:2|)) (* ?x1827 |v0:11|)) (* 8.0 |v9:2|))))
 (let ((?x1463 (+ (+ (+ |v1:10| (* ?x2511 ?x3024)) (* 3.0 |v0:11|)) (* (- 13.0) (rval2 |v6:5_st|)))))
 (let ((?x1949 (- 16.0)))
 (let ((?x1166 (* 5.0 |v8:3|)))
 (let (($x1133 (<= (+ (+ (+ (* ?x1827 |v0:11|) (* (- 18.0) |v11:0|)) (* ?x261 |v10:1|)) ?x1166) ?x1949)))
 (let ((?x193 (* 15.0 |v3:8|)))
 (let ((?x791 (+ (+ (+ (* (- 20.0) (rval2 |v5:6_st|)) (rval2 |v5:6_st|)) (* 18.0 |v9:2|)) ?x193)))
 (let ((?x68 (* ?x1442 |v0:11|)))
 (let ((?x1796 (+ (+ (+ (* (- 3.0) |v11:0|) (* 14.0 |v1:10|)) (* (- 14.0) |v1:10|)) ?x68)))
 (let ((?x286 (rval2 |v6:5_st|)))
 (let ((?x2765 (- 7.0)))
 (let ((?x987 (* ?x2765 ?x286)))
 (let ((?x1773 (+ (+ (+ (* ?x1694 ?x3024) (* (- 9.0) |v0:11|)) (* 18.0 (rval2 |v5:6_st|))) ?x987)))
 (let (($x2802 (<= (+ (+ (+ ?x2581 (* ?x1325 |v2:9|)) (* ?x261 |v0:11|)) (* (- 3.0) |v11:0|)) ?x563)))
 (let (($x2144 (and (and $x2802 (<= ?x1773 0.0)) (and (<= ?x1796 5.0) (<= ?x791 ?x1325)))))
 (let (($x717 (or $x2144 (or (and $x1133 (<= ?x1463 ?x261)) (and (<= ?x282 ?x1229) (<= ?x740 ?x55))))))
 (let (($x1372 (<= (+ (+ (+ (* ?x563 |v3:8|) (* 3.0 |v0:11|)) (* (- 18.0) |v1:10|)) ?x1995) 13.0)))
 (let (($x657 (<= (+ (+ (+ (* 8.0 ?x286) (* 6.0 ?x3024)) ?x2551) (* ?x1915 |v10:1|)) ?x563)))
 (let ((?x503 (* ?x563 |v3:8|)))
 (let (($x208 (<= (+ (+ (+ (rval2 |v5:6_st|) (* ?x1442 |v11:0|)) (* 2.0 |v2:9|)) ?x503) 17.0)))
 (let ((?x2421 (+ (+ (+ (* ?x2966 |v11:0|) (* ?x1949 |v2:9|)) (* ?x261 |v11:0|)) (* 16.0 (rval2 |v5:6_st|)))))
 (let (($x1064 (<= (+ (+ (+ (* 7.0 ?x286) (* (- 13.0) |v10:1|)) ?x1166) ?x2921) 17.0)))
 (let ((?x996 (* ?x261 |v0:11|)))
 (let (($x309 (<= (+ (+ (+ (* ?x261 ?x3024) (* 16.0 |v9:2|)) (* ?x1694 |v1:10|)) ?x996) ?x1325)))
 (let ((?x1540 (* 9.0 |v3:8|)))
 (let (($x1646 (<= (+ (+ (+ (* (- 9.0) ?x286) (* 18.0 ?x1571)) (* ?x1827 |v1:10|)) ?x1540) ?x1949)))
 (let ((?x3119 (+ (+ (+ (* ?x2765 |v0:11|) (* 8.0 |v11:0|)) (* 16.0 ?x3024)) (* ?x55 |v10:1|))))
 (let (($x1477 (or (or (or (<= ?x3119 ?x55) $x1646) (or $x309 $x1064)) (and (or (<= ?x2421 15.0) $x208) (or $x657 $x1372)))))
 (let ((?x3070 (+ (+ (* 19.0 |v1:10|) (* 6.0 |v2:9|)) (* 20.0 |v1:10|))))
 (let ((?x633 (- 13.0)))
 (let ((?x752 (+ (+ (+ (* ?x563 |v2:9|) (* ?x1915 (rval2 |v5:6_st|))) (* 12.0 |v0:11|)) (* ?x633 ?x3024))))
 (let ((?x326 (* 15.0 |v10:1|)))
 (let (($x53 (<= (+ (+ (+ (* 4.0 ?x286) (* ?x1325 ?x3024)) (* ?x2966 ?x286)) ?x326) ?x55)))
 (let ((?x1337 (* ?x1949 ?x3024)))
 (let ((?x72 (- 3.0)))
 (let ((?x1757 (* ?x72 |v3:8|)))
 (let (($x2739 (<= (+ (+ (+ (* ?x72 |v9:2|) (* (- 14.0) |v11:0|)) ?x1757) ?x1337) 11.0)))
 (let (($x528 (or (<= (+ (+ (+ |v2:9| (* 3.0 |v9:2|)) ?x2581) (* 12.0 |v2:9|)) ?x55) $x2739)))
 (let (($x2088 (and (and $x528 (and $x53 (<= ?x752 ?x633))) (<= (+ ?x3070 (* ?x2765 |v10:1|)) 5.0))))
 (let ((?x2223 (+ (+ (+ (* 17.0 |v2:9|) (* ?x633 |v0:11|)) (* 14.0 |v10:1|)) (* 11.0 |v8:3|))))
 (let ((?x3063 (+ (+ (+ (* 16.0 ?x286) (* 16.0 ?x286)) (* 0.0 |v3:8|)) (* (- 18.0) (rval2 |v5:6_st|)))))
 (let ((?x2180 (+ (+ (+ (* ?x1229 |v0:11|) (* ?x1325 ?x286)) (* 18.0 |v1:10|)) (* (- 18.0) |v8:3|))))
 (let ((?x2628 (+ (+ (+ (* 7.0 |v1:10|) |v3:8|) (* 17.0 |v9:2|)) (* (- 14.0) |v8:3|))))
 (let (($x2081 (or (or (<= ?x2628 16.0) (<= ?x2180 ?x1827)) (and (<= ?x3063 ?x1915) (<= ?x2223 ?x1827)))))
 (let ((?x1470 (* ?x1694 |v2:9|)))
 (let (($x586 (<= (+ (+ (+ (* ?x1827 |v3:8|) (* 18.0 ?x3024)) (* ?x1229 ?x1571)) ?x1470) ?x563)))
 (let (($x3023 (<= (+ (+ (+ (* 13.0 ?x3024) ?x987) (* 3.0 |v8:3|)) (* 15.0 ?x1571)) 8.0)))
 (let (($x976 (<= (+ (+ (+ (* 15.0 |v0:11|) ?x2145) (* 5.0 |v10:1|)) (* 18.0 |v11:0|)) 3.0)))
 (let ((?x100 (+ (+ (* 7.0 |v0:11|) (* 14.0 |v0:11|)) (* (- 20.0) |v3:8|))))
 (let (($x2717 (<= (+ (+ (+ ?x1337 (* 9.0 |v0:11|)) (* ?x55 |v1:10|)) (* 0.0 |v1:10|)) 13.0)))
 (let ((?x531 (* ?x261 |v2:9|)))
 (let (($x1651 (<= (+ (+ (+ (* 11.0 ?x1571) (* ?x1694 |v9:2|)) (* 18.0 |v11:0|)) ?x531) 9.0)))
 (let ((?x980 (* ?x1949 |v1:10|)))
 (let (($x1517 (<= (+ (+ (+ (* ?x261 |v10:1|) (* 11.0 ?x3024)) (* 4.0 ?x286)) ?x980) 11.0)))
 (let ((?x1306 (+ (+ (+ (* 14.0 |v2:9|) (* 7.0 |v1:10|)) (* 5.0 |v11:0|)) (* (- 14.0) ?x286))))
 (let ((?x2209 (* ?x1949 |v0:11|)))
 (let (($x1933 (<= (+ (+ (+ (* 12.0 |v9:2|) (* 6.0 |v1:10|)) (* 5.0 |v0:11|)) ?x2209) ?x1325)))
 (let ((?x1830 (- 20.0)))
 (let ((?x192 (* 16.0 |v2:9|)))
 (let ((?x2080 (+ (+ (+ (* 3.0 ?x1571) (* 4.0 ?x1571)) (* 14.0 (rval2 |v5:6_st|))) ?x192)))
 (let ((?x2610 (+ (+ (+ (* 12.0 |v11:0|) (* ?x2966 |v1:10|)) ?x168) (* ?x1694 (rval2 |v5:6_st|)))))
 (let (($x1500 (and (or (<= ?x2610 13.0) (<= ?x2080 ?x1830)) (or $x1933 (<= ?x1306 1.0)))))
 (let (($x2738 (or $x1500 (or (or $x1517 $x1651) (or $x2717 (<= (+ ?x100 (* ?x1949 |v11:0|)) 12.0))))))
 (let (($x2955 (or (and (or $x2738 (or (or $x976 (and $x3023 $x586)) $x2081)) (or $x2088 $x1477)) (or (and $x717 (or $x1021 $x1186)) (or (and $x1502 $x877) (or $x785 $x1663))))))
 (let (($x3027 (not (= |v4:7_st| (RMk1 val!3459)))))
 (let (($x820 (not (= |v5:6_st| (RMk1 val!3458)))))
 (let (($x1286 (not (= |v6:5_st| (RMk1 val!3457)))))
 (let (($x2483 (not (= |v7:4_st| (RMk1 val!3456)))))
 (and $x2483 $x1286 $x820 $x3027 $x2955))))))))))))))))))))))))))))))))))))))))))))))))))))))))))))))))))))))))))))))))))))))))))))))))))))))))))))))))))))))))))))))))))))))
 )
 )
 )
 )
 )
 )
 )
 )
 )
 )
 )
 )
(check-sat)
